0 2630
1 2561
2 2381
3 2260
4 2129
5 2053
6 1882
7 1821
8 1821
9 1787
10 1661
11 1624
12 1624
13 1588
14 1588
15 1588
16 1560
17 1557
18 1526
19 1521
20 1500
21 1500
22 1500
23 1405
24 1405
25 1402
26 1402
27 1394
28 1369
29 1369
30 1365
31 1326
32 1326
33 1326
34 1323
35 1313
36 1313
37 1313
38 1300
39 1300
40 1300
41 1300
42 1256
43 1256
44 1256
45 1235
46 1235
47 1235
48 1235
49 1235
50 1235
51 1235
52 1235
53 1235
54 1235
55 1235
56 1235
57 1235
58 1235
59 1235
60 1235
61 1235
62 1235
63 1235
64 1227
65 1227
66 1227
67 1227
68 1227
69 1225
70 1225
71 1225
72 1224
73 1220
74 1220
75 1220
76 1220
77 1178
78 1178
79 1178
80 1178
81 1146
82 1117
83 1117
84 1117
85 1114
86 1114
87 1114
88 1114
89 1114
90 1114
91 1113
92 1101
93 1095
94 1095
95 1095
96 1095
97 1095
98 1086
99 1086
100 1086
101 1086
102 1086
103 1086
104 1086
105 1077
106 1077
107 1077
108 1077
109 1077
110 1077
111 1077
112 1077
113 1077
114 1072
115 1072
116 1072
117 1072
118 1072
119 1072
120 1072
121 1072
122 1072
123 1072
124 1072
125 1072
126 1069
127 1069
128 1069
129 1069
130 1069
131 1061
132 1061
133 1061
134 1061
135 1061
136 1061
137 1061
138 1061
139 1061
140 1061
141 1061
142 1061
143 1061
144 1061
145 1061
146 1061
147 1061
148 1061
149 1061
150 1061
151 1061
152 1061
153 1061
154 1061
155 1061
156 1061
157 1061
158 1061
159 1045
160 1045
161 1045
162 1045
163 1045
164 1045
165 1045
166 1045
167 1045
168 1045
169 1045
170 1045
171 1045
172 1045
173 1045
174 1045
175 1045
176 1043
177 1043
178 1043
179 1043
180 1043
181 1043
182 1043
183 1043
184 1041
185 1041
186 1041
187 1041
188 1041
189 1041
190 1041
191 1041
192 1041
193 1041
194 1041
195 1041
196 1041
197 1041
198 1041
199 1041
200 1041
201 1041
202 1041
203 1041
204 1041
205 1041
206 1041
207 1041
208 1041
209 1041
210 1041
211 1041
212 1041
213 1041
214 1041
215 1041
216 1041
217 1041
218 1041
219 1041
220 1041
221 1041
222 1041
223 1041
224 1041
225 1041
226 1041
227 1041
228 1041
229 1041
230 1041
231 1041
232 1041
233 1041
234 1041
235 1041
236 1041
237 1041
238 1041
239 1041
240 1041
241 1041
242 1041
243 1041
244 1041
245 1041
246 1041
247 1041
248 1041
249 1041
250 1041
251 1041
252 1041
253 1041
254 1041
255 1041
256 1041
257 1041
258 1041
259 1041
260 1041
261 1041
262 1041
263 1041
264 1041
265 1041
266 1041
267 1041
268 1041
269 1041
270 1041
271 1041
272 1041
273 1041
274 1041
275 1041
276 1041
277 1041
278 1041
279 1041
280 1041
281 1041
282 1041
283 1041
284 1041
285 1041
286 1041
287 1041
288 1041
289 1041
290 1041
291 1041
292 1041
293 1041
294 1041
295 1041
296 1041
297 1041
298 1041
299 1041
300 1041
301 1041
302 1041
303 1041
304 1041
305 1041
306 1041
307 1041
308 1041
309 1041
310 1041
311 1041
312 1041
313 1041
314 1041
315 1041
316 1041
317 1041
318 1041
319 1041
320 1041
321 1041
322 1041
323 1041
324 1041
325 1041
326 1041
327 1041
328 1041
329 1041
330 1041
331 1041
332 1041
333 1041
334 1041
335 1041
336 1041
337 1041
338 1041
339 1041
340 1041
341 1041
342 1041
343 1041
344 1041
345 1041
346 1041
347 1041
348 1041
349 1041
350 1041
351 1041
352 1041
353 1041
354 1041
355 1041
356 1041
357 1041
358 1041
359 1041
360 1041
361 1041
362 1041
363 1041
364 1041
365 1041
366 1041
367 1041
368 1041
369 1041
370 1041
371 1041
372 1041
373 1041
374 1041
375 1041
376 1041
377 1041
378 1041
379 1041
380 1041
381 1041
382 1041
383 1041
384 1041
385 1041
386 1041
387 1041
388 1041
389 1041
390 1041
391 1041
392 1041
393 1041
394 1041
395 1041
396 1041
397 1041
398 1041
399 1041
400 1041
401 1041
402 1041
403 1041
404 1041
405 1041
406 1041
407 1041
408 1041
409 1041
410 1041
411 1041
412 1041
413 1041
414 1041
415 1041
416 1041
417 1041
418 1041
419 1041
420 1041
421 1041
422 1041
423 1041
424 1041
425 1041
426 1041
427 1041
428 1041
429 1041
430 1041
431 1041
432 1041
433 1041
434 1041
435 1041
436 1041
437 1041
438 1041
439 1041
440 1041
441 1041
442 1041
443 1041
444 1041
445 1041
446 1041
447 1041
448 1041
449 1041
450 1041
451 1041
452 1041
453 1041
454 1041
455 1041
456 1041
457 1041
458 1041
459 1041
460 1041
461 1041
462 1041
463 1041
464 1041
465 1041
466 1041
467 1041
468 1041
469 1041
470 1041
471 1041
472 1041
473 1041
474 1041
475 1041
476 1041
477 1041
478 1041
479 1041
480 1041
481 1041
482 1041
483 1041
484 1041
485 1041
486 1041
487 1041
488 1041
489 1041
490 1041
491 1041
492 1041
493 1041
494 1041
495 1041
496 1041
497 1041
498 1041
499 1041
500 1041
501 1041
502 1041
503 1041
504 1041
505 1041
506 1041
507 1041
508 1041
509 1041
510 1041
511 1041
512 1041
513 1041
514 1041
515 1041
516 1041
517 1041
518 1041
519 1041
520 1041
521 1041
522 1041
523 1041
524 1041
525 1041
526 1041
527 1041
528 1041
529 1041
530 1041
531 1041
532 1041
533 1041
534 1041
535 1041
536 1041
537 1041
538 1041
539 1041
540 1041
541 1041
542 1041
543 1041
544 1041
545 1041
546 1041
547 1041
548 1041
549 1041
550 1041
551 1041
552 1041
553 1041
554 1041
555 1041
556 1041
557 1041
558 1041
559 1041
560 1041
561 1041
562 1041
563 1041
564 1041
565 1041
566 1041
567 1041
568 1041
569 1041
570 1041
571 1041
572 1041
573 1041
574 1041
575 1041
576 1041
577 1041
578 1041
579 1041
580 1041
581 1041
582 1041
583 1041
584 1041
585 1041
586 1041
587 1041
588 1041
589 1041
590 1041
591 1041
592 1041
593 1041
594 1041
595 1041
596 1041
597 1041
598 1041
599 1041
600 1041
601 1041
602 1041
603 1041
604 1041
605 1041
606 1041
607 1041
608 1041
609 1041
610 1041
611 1041
612 1041
613 1041
614 1041
615 1041
616 1041
617 1041
618 1041
619 1041
620 1041
621 1041
622 1041
623 1041
624 1041
625 1041
626 1041
627 1041
628 1041
629 1041
630 1041
631 1041
632 1041
633 1041
634 1041
635 1041
636 1041
637 1041
638 1041
639 1041
640 1041
641 1041
642 1041
643 1041
644 1041
645 1041
646 1041
647 1041
648 1041
649 1041
650 1041
651 1041
652 1041
653 1041
654 1041
655 1041
656 1041
657 1041
658 1041
659 1041
660 1041
661 1041
662 1041
663 1041
664 1041
665 1041
666 1041
667 1041
668 1041
669 1041
670 1041
671 1041
672 1041
673 1041
674 1041
675 1041
676 1041
677 1041
678 1041
679 1041
680 1041
681 1041
682 1041
683 1041
684 1041
685 1041
686 1041
687 1041
688 1041
689 1041
690 1041
691 1041
692 1041
693 1041
694 1041
695 1041
696 1041
697 1041
698 1041
699 1041
700 1041
701 1041
702 1041
703 1041
704 1041
705 1041
706 1041
707 1041
708 1041
709 1041
710 1041
711 1041
712 1041
713 1041
714 1041
715 1041
716 1041
717 1041
718 1041
719 1041
720 1041
721 1041
722 1041
723 1041
724 1041
725 1041
726 1041
727 1041
728 1041
729 1041
730 1041
731 1041
732 1041
733 1041
734 1041
735 1041
736 1041
737 1041
738 1041
739 1041
740 1041
741 1041
742 1041
743 1041
744 1041
745 1041
746 1041
747 1041
748 1041
749 1041
750 1041
751 1041
752 1041
753 1041
754 1041
755 1041
756 1041
757 1041
758 1041
759 1041
760 1041
761 1041
762 1041
763 1041
764 1041
765 1041
766 1041
767 1041
768 1041
769 1041
770 1041
771 1041
772 1041
773 1041
774 1041
775 1041
776 1041
777 1041
778 1041
779 1041
780 1041
781 1041
782 1041
783 1041
784 1041
785 1041
786 1041
787 1041
788 1041
789 1041
790 1041
791 1041
792 1041
793 1041
794 1041
795 1041
796 1041
797 1041
798 1041
799 1041
800 1041
801 1041
802 1041
803 1041
804 1041
805 1041
806 1041
807 1041
808 1041
809 1041
810 1041
811 1041
812 1041
813 1041
814 1041
815 1041
816 1041
817 1041
818 1041
819 1041
820 1041
821 1041
822 1041
823 1041
824 1041
825 1041
826 1041
827 1041
828 1041
829 1041
830 1041
831 1041
832 1041
833 1041
834 1041
835 1041
836 1041
837 1041
838 1041
839 1041
840 1041
841 1041
842 1041
843 1041
844 1041
845 1041
846 1041
847 1041
848 1041
849 1041
850 1041
851 1041
852 1041
853 1041
854 1041
855 1041
856 1041
857 1041
858 1041
859 1041
860 1041
861 1041
862 1041
863 1041
864 1041
865 1041
866 1041
867 1041
868 1041
869 1041
870 1041
871 1041
872 1041
873 1041
874 1041
875 1041
876 1041
877 1041
878 1041
879 1041
880 1041
881 1041
882 1041
883 1041
884 1041
885 1041
886 1041
887 1041
888 1041
889 1041
890 1041
891 1041
892 1041
893 1041
894 1041
895 1041
896 1041
897 1041
898 1041
899 1041
900 1041
901 1041
902 1041
903 1041
904 1041
905 1041
906 1041
907 1041
908 1041
909 1041
910 1041
911 1041
912 1041
913 1041
914 1041
915 1041
916 1041
917 1041
918 1041
919 1041
920 1041
921 1041
922 1041
923 1041
924 1041
925 1041
926 1041
927 1041
928 1041
929 1041
930 1041
931 1041
932 1041
933 1041
934 1041
935 1041
936 1041
937 1041
938 1041
939 1041
940 1041
941 1041
942 1041
943 1041
944 1041
945 1041
946 1041
947 1041
948 1041
949 1041
950 1041
951 1041
952 1041
953 1041
954 1041
955 1041
956 1041
957 1041
958 1041
959 1041
960 1041
961 1041
962 1041
963 1041
964 1041
965 1041
966 1041
967 1041
968 1041
969 1041
970 1041
971 1041
972 1041
973 1041
974 1041
975 1041
976 1041
977 1041
978 1041
979 1041
980 1041
981 1041
982 1041
983 1041
984 1041
985 1041
986 1041
987 1041
988 1041
989 1041
990 1041
991 1041
992 1041
993 1041
994 1041
995 1041
996 1041
997 1041
998 1041
999 1041
Best: [[27,4,3,5,12,9,19],
       [21,26,6,28],
       [13,2,14,24,29,10,23],
       [31,17,22,32,20,18],
       [25,15,8,7,16,11,30]], fitness: 1041
